\ SCIP STATISTICS
\   Problem name     : prod
\   Variables        : 3 (0 binary, 0 integer, 0 implicit integer, 3 continuous)
\   Constraints      : 3
Maximize
 Obj: +5 x1 +6 x1 +8 x3
Subject to
 c1: +6 x1 +5 x1 +10 x3 <= +60
 c2: +8 x1 +4 x1 +4 x3 <= +40
 c3: +4 x1 +5 x1 +6 x3 <= +50
Bounds
End
